c description: Random 3-CNF over 21 variables and 89 clauses
c generator: CNFgen (0.9.2)
c copyright: (C) 2012-2022 Massimo Lauria <massimo.lauria@uniroma1.it>
c url: https://massimolauria.net/cnfgen
c command line: cnfgen --output CNF_4.28/21_bit_89_413.cnf randkcnf 3 21 89
c
p cnf 21 89
-1 10 -13 0
1 -19 -20 0
8 9 21 0
4 -16 21 0
6 11 13 0
11 13 19 0
-1 7 -10 0
-7 18 -20 0
14 16 19 0
1 -18 21 0
-1 -7 16 0
5 12 17 0
6 13 18 0
1 18 -21 0
4 -9 -11 0
-1 -3 8 0
-9 16 18 0
-4 -6 -7 0
4 7 -16 0
1 -16 -18 0
9 14 17 0
-3 9 -14 0
-13 19 21 0
2 20 -21 0
-7 16 18 0
5 -17 18 0
-2 19 -20 0
1 6 -16 0
8 -11 12 0
4 -6 7 0
-4 -11 12 0
-6 14 17 0
3 10 21 0
-7 13 17 0
5 12 -20 0
1 -3 17 0
-11 14 15 0
8 -10 19 0
-3 -4 -19 0
-2 -7 16 0
3 16 -19 0
-2 -9 -15 0
-1 -2 -8 0
-5 -12 18 0
2 10 13 0
-7 -16 -17 0
-9 11 12 0
5 8 -10 0
-8 14 -16 0
1 -20 21 0
-6 -11 16 0
6 8 16 0
1 -2 -11 0
-3 -16 21 0
10 -14 17 0
6 10 -18 0
11 17 -18 0
-3 -11 -12 0
-5 13 -19 0
-19 20 -21 0
-10 12 -15 0
10 -15 17 0
-11 -16 -19 0
-4 14 -19 0
-3 -14 -18 0
12 -18 19 0
-12 14 19 0
1 -8 -14 0
-1 5 8 0
7 10 16 0
-3 -7 -20 0
3 -15 16 0
4 -5 13 0
3 14 15 0
2 -3 5 0
-6 14 -16 0
-5 -10 -12 0
7 -18 -19 0
-2 -10 -21 0
-2 7 17 0
-4 -7 11 0
-1 -16 -18 0
-3 -7 14 0
9 15 16 0
13 19 21 0
7 -9 -10 0
-2 -4 -13 0
4 -13 14 0
-3 -5 6 0
